========================================================== 
File name: C:\DEGR\assets\definitions\MSRCPSP_Gen\200_40_512_5_A.def
Creation date: Wed May 03 10:48:59 CEST 2023
Website: http://imopse.ii.pwr.edu.pl/ 
Reference: 
Myszkowski P. B., Skowronski M. E., Olech L., Oslizlo K., 
Hybrid Ant Colony Optimization in solving Multi-Skill Resource-Constrained Project Scheduling Problem, 
Soft Computing, DOI: DOI 10.1007/s00500-014-1455-x 
========================================================== 
General characteristics: 
Tasks: 200
Resources: 40
Precedence relations: 505
Number of skill types: 5
========================================================== 
ResourceID 	 Salary 	 Skills 
1	 	 	50.6	 	 Q1: 1 	  Q0: 0 	 
2	 	 	80.2	 	 Q2: 2 	 
3	 	 	18.1	 	 Q2: 2 	  Q0: 3 	 
4	 	 	41.9	 	 Q0: 1 	 
5	 	 	97.3	 	 Q4: 0 	  Q2: 2 	  Q3: 1 	 
6	 	 	93.1	 	 Q0: 2 	  Q2: 2 	  Q1: 3 	  Q4: 0 	 
7	 	 	55.8	 	 Q0: 2 	 
8	 	 	69.1	 	 Q0: 0 	  Q4: 2 	 
9	 	 	54.5	 	 Q3: 3 	  Q1: 3 	  Q2: 1 	  Q4: 3 	 
10	 	 	87.1	 	 Q0: 2 	  Q1: 3 	  Q2: 3 	 
11	 	 	75.4	 	 Q3: 0 	  Q1: 3 	 
12	 	 	32.1	 	 Q2: 0 	  Q1: 0 	  Q0: 0 	  Q3: 1 	 
13	 	 	81.9	 	 Q0: 1 	 
14	 	 	13.2	 	 Q4: 3 	  Q0: 2 	  Q3: 2 	  Q1: 0 	 
15	 	 	64.2	 	 Q0: 3 	 
16	 	 	95.9	 	 Q2: 2 	 
17	 	 	17.7	 	 Q1: 2 	  Q3: 2 	  Q2: 0 	  Q0: 0 	 
18	 	 	68.7	 	 Q0: 2 	  Q3: 1 	 
19	 	 	37.2	 	 Q3: 2 	  Q4: 1 	  Q2: 3 	 
20	 	 	14.6	 	 Q0: 2 	  Q1: 2 	  Q3: 1 	  Q2: 2 	 
21	 	 	59.2	 	 Q3: 3 	  Q4: 0 	  Q1: 3 	  Q0: 1 	 
22	 	 	65.9	 	 Q2: 3 	 
23	 	 	72.2	 	 Q0: 1 	  Q2: 2 	  Q1: 0 	  Q4: 0 	 
24	 	 	34.3	 	 Q4: 3 	 
25	 	 	46.7	 	 Q1: 0 	  Q4: 2 	  Q3: 2 	 
26	 	 	31.9	 	 Q3: 2 	  Q4: 3 	  Q1: 0 	 
27	 	 	96.9	 	 Q4: 3 	  Q0: 3 	  Q1: 3 	  Q3: 2 	 
28	 	 	30.5	 	 Q4: 0 	  Q3: 2 	 
29	 	 	31.5	 	 Q4: 0 	  Q3: 1 	  Q0: 1 	 
30	 	 	38.1	 	 Q4: 3 	  Q3: 3 	  Q2: 1 	 
31	 	 	70.7	 	 Q1: 0 	 
32	 	 	54.8	 	 Q4: 2 	  Q0: 2 	  Q3: 2 	  Q1: 2 	 
33	 	 	77.1	 	 Q1: 2 	 
34	 	 	27.8	 	 Q4: 0 	  Q0: 2 	  Q1: 3 	 
35	 	 	75.8	 	 Q0: 3 	 
36	 	 	22.2	 	 Q3: 1 	 
37	 	 	91.8	 	 Q0: 3 	 
38	 	 	39.5	 	 Q2: 3 	  Q0: 1 	 
39	 	 	17.1	 	 Q3: 1 	 
40	 	 	69.3	 	 Q0: 3 	  Q2: 0 	 
========================================================== 
TaskID 	 Duration 	 Skill 	 Predecessor IDs 
1	19	Q3:	2
2	9	Q0:	0
3	9	Q0:	3
4	31	Q0:	1
5	24	Q4:	2
6	10	Q3:	0
7	36	Q1:	0
8	26	Q1:	3
9	35	Q1:	1
10	9	Q1:	1	9
11	22	Q3:	0
12	9	Q4:	0
13	39	Q2:	2
14	22	Q2:	1
15	25	Q0:	3
16	37	Q2:	0	5
17	31	Q2:	0
18	37	Q3:	3	5
19	21	Q4:	0
20	28	Q0:	2
21	24	Q1:	1
22	16	Q1:	1	15	9
23	15	Q0:	0
24	40	Q3:	3	8	17	3
25	36	Q4:	1	24
26	17	Q1:	2	7
27	31	Q3:	0
28	35	Q3:	2	17
29	32	Q4:	3	4	13
30	40	Q2:	0	15
31	26	Q2:	3
32	22	Q0:	1	25	15
33	20	Q4:	1
34	30	Q4:	0	25
35	29	Q0:	3
36	30	Q3:	1	15
37	21	Q0:	1
38	31	Q4:	3
39	35	Q0:	2	7	9
40	39	Q0:	1	30
41	16	Q4:	0
42	20	Q0:	0	41	39
43	37	Q1:	2	2
44	24	Q1:	0	19	17
45	37	Q4:	2	12	25
46	29	Q3:	2
47	10	Q1:	0	31	24
48	10	Q3:	3	17	5
49	29	Q4:	2
50	37	Q4:	1	41
51	21	Q0:	1	17	45	20
52	12	Q4:	1	49	42	27	26
53	37	Q1:	2	17
54	24	Q3:	1
55	26	Q0:	1	8
56	21	Q0:	3
57	35	Q1:	3	45
58	20	Q0:	1	55
59	27	Q0:	1
60	23	Q3:	3	23	4
61	35	Q3:	0	13	38
62	22	Q4:	0	57	48
63	15	Q0:	1	30
64	33	Q4:	0	10
65	36	Q0:	1	23	8
66	28	Q4:	0
67	29	Q3:	0	14	30
68	19	Q0:	0
69	13	Q4:	1	2
70	19	Q1:	1
71	36	Q3:	1
72	26	Q1:	1	18	39
73	34	Q4:	3	42	50
74	36	Q2:	2	50	61
75	36	Q2:	3	34
76	14	Q3:	1	19	74
77	26	Q0:	3	36	73	34	63	30	45	17	46
78	33	Q1:	0	20
79	36	Q3:	0	13
80	18	Q1:	3	54	61	12	46	52
81	24	Q1:	3	38	65	1	62
82	19	Q3:	0	78
83	32	Q3:	2
84	40	Q3:	3	65	77	75	26
85	32	Q1:	1
86	20	Q4:	2	34	61
87	39	Q4:	2	13	8	63
88	35	Q4:	2	54	13	53
89	37	Q4:	2	5
90	13	Q1:	2	47	18
91	24	Q3:	1	17	54
92	28	Q2:	0	16	26
93	32	Q4:	1	50	1
94	39	Q0:	2	45	41	71	46	2
95	15	Q2:	3	22
96	15	Q0:	3	78	4	21
97	12	Q2:	1	55	36	49
98	11	Q2:	3	92	74
99	29	Q2:	1	53	80	67	76
100	13	Q0:	2	63	99	27
101	40	Q1:	2	93	28
102	26	Q1:	1	63
103	12	Q0:	1	61	65	52
104	32	Q1:	2	74	59	78	53	8
105	13	Q2:	2	45	104
106	23	Q4:	3	45
107	14	Q0:	1	19	72	96	56	25
108	10	Q1:	2
109	21	Q4:	0	76
110	33	Q0:	1	90	39	47
111	40	Q1:	3	26
112	10	Q3:	1	42	65
113	16	Q3:	1	72	94	6
114	40	Q1:	1	35
115	38	Q4:	2	59	32
116	29	Q4:	0	41	53	24	71	59
117	19	Q2:	2	2	75	63
118	34	Q1:	2	71	3	66	84
119	22	Q2:	3	84	30	18	102
120	24	Q0:	1	2	74	106
121	19	Q2:	3	51	59	32
122	20	Q3:	0	75	62
123	40	Q2:	1	61	29	102	121
124	17	Q3:	1	119	72	4
125	22	Q0:	3	109	29	10	3	67
126	27	Q1:	3	19	104	5
127	26	Q3:	1	124	42
128	35	Q4:	0	86	4	42
129	36	Q3:	3	127
130	40	Q1:	0	89	98
131	40	Q0:	0	31	30	44	36
132	39	Q4:	3	128	127	32	26
133	36	Q1:	2	59	104	12
134	32	Q3:	3	7	80	121	55	63	34	114
135	10	Q0:	0	32	63
136	29	Q4:	0	110	2	25	19
137	39	Q1:	2	28	20	51	53	2
138	9	Q1:	1	94	35	130	125	33	74	78
139	20	Q2:	3	31	134	77	83	14	58
140	31	Q2:	1	15	137	110
141	22	Q1:	1	8	63	128	12
142	38	Q3:	1	44	10	65
143	18	Q0:	2	49	37
144	14	Q0:	0	71	11	61	124	39
145	38	Q3:	0	14	42	128	26
146	37	Q1:	2	56	85	76	132	75	26	131
147	11	Q4:	3	121	56	1	141	131	140
148	22	Q4:	0	93	120	126	79
149	15	Q2:	3	68	62
150	12	Q0:	0	15	12	1	67	8	3	100	98
151	32	Q1:	2	121	14	138	97
152	20	Q2:	0	142	120
153	28	Q1:	1	90	112	47	38	44	5
154	28	Q4:	2	75	147	13
155	40	Q2:	3	12	87	63	121
156	12	Q0:	2	153	126	100	18	63	103	13	69
157	16	Q0:	0	89	140	26
158	20	Q0:	0	105	92	142	74
159	36	Q0:	0	123	75	131	155	130	148	43
160	12	Q2:	0	74	77	144	13
161	24	Q4:	0	112
162	31	Q1:	1	146	10	93
163	24	Q2:	2	88	151	44	64
164	18	Q2:	3	113	47	12
165	20	Q2:	1	19	88	40
166	34	Q2:	1	83	18
167	31	Q2:	0	149	71	5	14	97	70
168	31	Q2:	1	156	164	86
169	16	Q4:	3	122
170	31	Q1:	1	5	85	113	124	86	40
171	17	Q4:	2	159
172	16	Q2:	1	150	99
173	18	Q0:	3	18	87	160	155	112
174	38	Q1:	1	6	87	116	111
175	37	Q0:	0	64	173	95
176	18	Q2:	1	22	17	79	163	109	74	52	172
177	36	Q0:	1	144	61	108	8	69	35
178	18	Q4:	0	101	61	6
179	28	Q2:	1	39	81	131	171	58	19	139	100	145
180	33	Q2:	1	48	120	175	44	172	149	117
181	12	Q4:	3	161
182	30	Q3:	2	119	140	155
183	9	Q0:	1	26	18	138	11
184	33	Q0:	3	118	116	78	35	170	110	84
185	29	Q2:	3	178	124	62	184
186	32	Q1:	1	175	121	132	127
187	32	Q2:	3	73	104
188	31	Q4:	3	158	104	24	184	45
189	21	Q0:	3	64	157	14	61	171	83	28	102
190	32	Q0:	1	120	187	184	82	173	143
191	26	Q1:	0	39	185	40	53	25	38	67
192	11	Q1:	0	19	120	106
193	19	Q4:	1	135	75
194	13	Q4:	0	111	117	156	75	102
195	13	Q4:	1	137	151	81	175
196	39	Q4:	3	79	112
197	12	Q4:	2	4	186	157
198	35	Q0:	0	79	17	184	166	13	138
199	14	Q1:	0	31	164
200	24	Q4:	0	37	134	67	50	143
========================================================== 